words_hard_train/4915.qaiger
aag 51 17 0 1 34
2
4
12
14
18
20
28
30
38
44
46
50
52
58
60
76
78
102
6 3 4
8 2 5
10 7 9
16 13 14
22 18 21
24 17 23
26 10 24
32 28 30
34 29 31
36 33 35
40 36 38
42 26 41
48 45 46
54 50 52
56 49 55
62 59 61
64 12 15
66 63 65
68 56 66
70 51 53
72 44 47
74 71 73
80 76 79
82 77 78
84 81 83
86 74 85
88 68 86
90 58 60
92 19 20
94 91 93
96 88 94
98 42 96
100 37 39
102 99 101
i0 2 y1[5]
i1 1 x1[5]
i2 2 y1[1]
i3 1 x1[1]
i4 2 y1[4]
i5 1 x1[4]
i6 2 y1[7]
i7 1 x1[7]
i8 1 x2[0]
i9 2 y1[2]
i10 1 x1[2]
i11 2 y1[6]
i12 1 x1[6]
i13 2 y1[0]
i14 1 x1[0]
i15 2 y1[3]
i16 1 x1[3]
o0 bv[0]
c
simplified
  <
    << 7
      1 x2
    xor
      1 x1
      xor
        -55
        2 y1
