words_hard_train/4915.qaiger.qdimacs
p cnf 51 103
a 2 7 39 10 15 19 23 26 30 0
e 1 3 4 5 6 8 9 11 12 13 14 16 17 18 20 21 22 24 25 27 28 29 31 32 33 34 35 36 37 38 40 41 42 43 44 45 46 47 48 49 50 51 0
1 -2 3 0
-1 -3 0
2 -3 0
-1 2 4 0
1 -4 0
-2 -4 0
3 4 5 0
-3 -5 0
-4 -5 0
6 -7 8 0
-6 -8 0
7 -8 0
-9 10 11 0
9 -11 0
-10 -11 0
8 11 12 0
-8 -12 0
-11 -12 0
-5 -12 13 0
5 -13 0
12 -13 0
-14 -15 16 0
14 -16 0
15 -16 0
14 15 17 0
-14 -17 0
-15 -17 0
16 17 18 0
-16 -18 0
-17 -18 0
-18 -19 20 0
18 -20 0
19 -20 0
-13 20 21 0
13 -21 0
-20 -21 0
22 -23 24 0
-22 -24 0
23 -24 0
-25 -26 27 0
25 -27 0
26 -27 0
24 27 28 0
-24 -28 0
-27 -28 0
29 30 31 0
-29 -31 0
-30 -31 0
-6 7 32 0
6 -32 0
-7 -32 0
31 32 33 0
-31 -33 0
-32 -33 0
-28 -33 34 0
28 -34 0
33 -34 0
25 26 35 0
-25 -35 0
-26 -35 0
-22 23 36 0
22 -36 0
-23 -36 0
35 36 37 0
-35 -37 0
-36 -37 0
-38 39 40 0
38 -40 0
-39 -40 0
38 -39 41 0
-38 -41 0
39 -41 0
40 41 42 0
-40 -42 0
-41 -42 0
-37 42 43 0
37 -43 0
-42 -43 0
-34 -43 44 0
34 -44 0
43 -44 0
-29 -30 45 0
29 -45 0
30 -45 0
9 -10 46 0
-9 -46 0
10 -46 0
45 46 47 0
-45 -47 0
-46 -47 0
-44 -47 48 0
44 -48 0
47 -48 0
-21 -48 49 0
21 -49 0
48 -49 0
18 19 50 0
-18 -50 0
-19 -50 0
49 50 51 0
-49 -51 0
-50 -51 0
51 0
